(declare-fun b11 () (_ FloatingPoint 8 24))
(declare-fun b86 () (_ FloatingPoint 8 24))
(declare-fun b116 () (_ FloatingPoint 8 24))
(declare-fun b104 () (_ FloatingPoint 8 24))
(declare-fun b80 () (_ FloatingPoint 8 24))
(declare-fun b41 () (_ FloatingPoint 8 24))
(declare-fun b98 () (_ FloatingPoint 8 24))
(declare-fun b128 () (_ FloatingPoint 8 24))
(declare-fun b110 () (_ FloatingPoint 8 24))
(declare-fun b35 () (_ FloatingPoint 8 24))
(declare-fun b122 () (_ FloatingPoint 8 24))
(declare-fun b17 () (_ FloatingPoint 8 24))
(declare-fun b89 () (_ FloatingPoint 8 24))
(declare-fun b220 () (_ FloatingPoint 8 24))
(declare-fun b62 () (_ FloatingPoint 8 24))
(declare-fun b92 () (_ FloatingPoint 8 24))
(declare-fun b10 () (_ FloatingPoint 8 24))
(declare-fun b71 () (_ FloatingPoint 8 24))
(declare-fun b56 () (_ FloatingPoint 8 24))
(declare-fun b119 () (_ FloatingPoint 8 24))
(declare-fun b65 () (_ FloatingPoint 8 24))
(declare-fun b29 () (_ FloatingPoint 8 24))
(declare-fun b23 () (_ FloatingPoint 8 24))
(declare-fun b68 () (_ FloatingPoint 8 24))
(declare-fun b20 () (_ FloatingPoint 8 24))
(declare-fun b59 () (_ FloatingPoint 8 24))
(declare-fun b77 () (_ FloatingPoint 8 24))
(declare-fun b107 () (_ FloatingPoint 8 24))
(declare-fun b14 () (_ FloatingPoint 8 24))
(declare-fun b26 () (_ FloatingPoint 8 24))
(declare-fun b44 () (_ FloatingPoint 8 24))
(declare-fun b50 () (_ FloatingPoint 8 24))
(declare-fun b125 () (_ FloatingPoint 8 24))
(declare-fun b53 () (_ FloatingPoint 8 24))
(declare-fun b38 () (_ FloatingPoint 8 24))
(declare-fun b101 () (_ FloatingPoint 8 24))
(declare-fun b47 () (_ FloatingPoint 8 24))
(declare-fun b95 () (_ FloatingPoint 8 24))
(declare-fun b83 () (_ FloatingPoint 8 24))
(declare-fun b113 () (_ FloatingPoint 8 24))
(declare-fun b32 () (_ FloatingPoint 8 24))
(declare-fun b131 () (_ FloatingPoint 8 24))
(declare-fun b74 () (_ FloatingPoint 8 24))
(assert (let ((.def_251 (fp.lt b220 b128)))
(let ((.def_249 (fp.lt b128 b131)))
(let ((.def_247 (fp.lt b220 b125)))
(let ((.def_245 (fp.lt b125 b131)))
(let ((.def_243 (fp.lt b220 b122)))
(let ((.def_241 (fp.lt b122 b131)))
(let ((.def_239 (fp.lt b220 b119)))
(let ((.def_237 (fp.lt b119 b131)))
(let ((.def_235 (fp.lt b220 b116)))
(let ((.def_233 (fp.lt b116 b131)))
(let ((.def_231 (fp.lt b220 b113)))
(let ((.def_229 (fp.lt b113 b131)))
(let ((.def_227 (fp.lt b220 b110)))
(let ((.def_225 (fp.lt b110 b131)))
(let ((.def_223 (fp.lt b220 b107)))
(let ((.def_221 (fp.lt b107 b131)))
(let ((.def_219 (fp.lt b220 b104)))
(let ((.def_217 (fp.lt b104 b131)))
(let ((.def_215 (fp.lt b220 b101)))
(let ((.def_213 (fp.lt b101 b131)))
(let ((.def_211 (fp.lt b220 b98)))
(let ((.def_209 (fp.lt b98 b131)))
(let ((.def_207 (fp.lt b220 b95)))
(let ((.def_205 (fp.lt b95 b131)))
(let ((.def_203 (fp.lt b220 b92)))
(let ((.def_201 (fp.lt b92 b131)))
(let ((.def_199 (fp.lt b220 b89)))
(let ((.def_197 (fp.lt b89 b131)))
(let ((.def_195 (fp.lt b220 b86)))
(let ((.def_193 (fp.lt b86 b131)))
(let ((.def_191 (fp.lt b220 b83)))
(let ((.def_189 (fp.lt b83 b131)))
(let ((.def_187 (fp.lt b220 b80)))
(let ((.def_185 (fp.lt b80 b131)))
(let ((.def_183 (fp.lt b220 b77)))
(let ((.def_181 (fp.lt b77 b131)))
(let ((.def_179 (fp.lt b220 b74)))
(let ((.def_177 (fp.lt b74 b131)))
(let ((.def_175 (fp.lt b220 b71)))
(let ((.def_173 (fp.lt b71 b131)))
(let ((.def_171 (fp.lt b220 b68)))
(let ((.def_169 (fp.lt b68 b131)))
(let ((.def_167 (fp.lt b220 b65)))
(let ((.def_165 (fp.lt b65 b131)))
(let ((.def_163 (fp.lt b220 b62)))
(let ((.def_161 (fp.lt b62 b131)))
(let ((.def_159 (fp.lt b220 b59)))
(let ((.def_157 (fp.lt b59 b131)))
(let ((.def_155 (fp.lt b220 b56)))
(let ((.def_153 (fp.lt b56 b131)))
(let ((.def_151 (fp.lt b220 b53)))
(let ((.def_149 (fp.lt b53 b131)))
(let ((.def_147 (fp.lt b220 b50)))
(let ((.def_145 (fp.lt b50 b131)))
(let ((.def_143 (fp.lt b220 b47)))
(let ((.def_141 (fp.lt b47 b131)))
(let ((.def_139 (fp.lt b220 b44)))
(let ((.def_137 (fp.lt b44 b131)))
(let ((.def_135 (fp.lt b220 b41)))
(let ((.def_133 (fp.lt b41 b131)))
(let ((.def_131 (fp.lt b220 b38)))
(let ((.def_129 (fp.lt b38 b131)))
(let ((.def_127 (fp.lt b220 b35)))
(let ((.def_125 (fp.lt b35 b131)))
(let ((.def_123 (fp.lt b220 b32)))
(let ((.def_121 (fp.lt b32 b131)))
(let ((.def_119 (fp.lt b220 b29)))
(let ((.def_117 (fp.lt b29 b131)))
(let ((.def_115 (fp.lt b220 b26)))
(let ((.def_113 (fp.lt b26 b131)))
(let ((.def_111 (fp.lt b220 b23)))
(let ((.def_109 (fp.lt b23 b131)))
(let ((.def_107 (fp.lt b220 b20)))
(let ((.def_105 (fp.lt b20 b131)))
(let ((.def_103 (fp.lt b220 b17)))
(let ((.def_101 (fp.lt b17 b131)))
(let ((.def_99 (fp.lt b220 b14)))
(let ((.def_97 (fp.lt b14 b131)))
(let ((.def_95 (fp.lt b220 b11)))
(let ((.def_13 (fp.div RNE b10 b11)))
(let ((.def_15 (fp.div RNE .def_13 b14)))
(let ((.def_17 (fp.div RNE .def_15 b17)))
(let ((.def_19 (fp.div RNE .def_17 b20)))
(let ((.def_21 (fp.div RNE .def_19 b23)))
(let ((.def_23 (fp.div RNE .def_21 b26)))
(let ((.def_25 (fp.div RNE .def_23 b29)))
(let ((.def_27 (fp.div RNE .def_25 b32)))
(let ((.def_29 (fp.div RNE .def_27 b35)))
(let ((.def_31 (fp.div RNE .def_29 b38)))
(let ((.def_33 (fp.div RNE .def_31 b41)))
(let ((.def_35 (fp.div RNE .def_33 b44)))
(let ((.def_37 (fp.div RNE .def_35 b47)))
(let ((.def_39 (fp.div RNE .def_37 b50)))
(let ((.def_41 (fp.div RNE .def_39 b53)))
(let ((.def_43 (fp.div RNE .def_41 b56)))
(let ((.def_45 (fp.div RNE .def_43 b59)))
(let ((.def_47 (fp.div RNE .def_45 b62)))
(let ((.def_49 (fp.div RNE .def_47 b65)))
(let ((.def_51 (fp.div RNE .def_49 b68)))
(let ((.def_53 (fp.div RNE .def_51 b71)))
(let ((.def_55 (fp.div RNE .def_53 b74)))
(let ((.def_57 (fp.div RNE .def_55 b77)))
(let ((.def_59 (fp.div RNE .def_57 b80)))
(let ((.def_61 (fp.div RNE .def_59 b83)))
(let ((.def_63 (fp.div RNE .def_61 b86)))
(let ((.def_65 (fp.div RNE .def_63 b89)))
(let ((.def_67 (fp.div RNE .def_65 b92)))
(let ((.def_69 (fp.div RNE .def_67 b95)))
(let ((.def_71 (fp.div RNE .def_69 b98)))
(let ((.def_73 (fp.div RNE .def_71 b101)))
(let ((.def_75 (fp.div RNE .def_73 b104)))
(let ((.def_77 (fp.div RNE .def_75 b107)))
(let ((.def_79 (fp.div RNE .def_77 b110)))
(let ((.def_81 (fp.div RNE .def_79 b113)))
(let ((.def_83 (fp.div RNE .def_81 b116)))
(let ((.def_85 (fp.div RNE .def_83 b119)))
(let ((.def_87 (fp.div RNE .def_85 b122)))
(let ((.def_89 (fp.div RNE .def_87 b125)))
(let ((.def_91 (fp.div RNE .def_89 b128)))
(let ((.def_92 (fp.lt .def_91 b131)))
(let ((.def_11 (fp.lt b11 b131)))
(let ((.def_93 (and .def_11 .def_92)))
(let ((.def_96 (and .def_93 .def_95)))
(let ((.def_98 (and .def_96 .def_97)))
(let ((.def_100 (and .def_98 .def_99)))
(let ((.def_102 (and .def_100 .def_101)))
(let ((.def_104 (and .def_102 .def_103)))
(let ((.def_106 (and .def_104 .def_105)))
(let ((.def_108 (and .def_106 .def_107)))
(let ((.def_110 (and .def_108 .def_109)))
(let ((.def_112 (and .def_110 .def_111)))
(let ((.def_114 (and .def_112 .def_113)))
(let ((.def_116 (and .def_114 .def_115)))
(let ((.def_118 (and .def_116 .def_117)))
(let ((.def_120 (and .def_118 .def_119)))
(let ((.def_122 (and .def_120 .def_121)))
(let ((.def_124 (and .def_122 .def_123)))
(let ((.def_126 (and .def_124 .def_125)))
(let ((.def_128 (and .def_126 .def_127)))
(let ((.def_130 (and .def_128 .def_129)))
(let ((.def_132 (and .def_130 .def_131)))
(let ((.def_134 (and .def_132 .def_133)))
(let ((.def_136 (and .def_134 .def_135)))
(let ((.def_138 (and .def_136 .def_137)))
(let ((.def_140 (and .def_138 .def_139)))
(let ((.def_142 (and .def_140 .def_141)))
(let ((.def_144 (and .def_142 .def_143)))
(let ((.def_146 (and .def_144 .def_145)))
(let ((.def_148 (and .def_146 .def_147)))
(let ((.def_150 (and .def_148 .def_149)))
(let ((.def_152 (and .def_150 .def_151)))
(let ((.def_154 (and .def_152 .def_153)))
(let ((.def_156 (and .def_154 .def_155)))
(let ((.def_158 (and .def_156 .def_157)))
(let ((.def_160 (and .def_158 .def_159)))
(let ((.def_162 (and .def_160 .def_161)))
(let ((.def_164 (and .def_162 .def_163)))
(let ((.def_166 (and .def_164 .def_165)))
(let ((.def_168 (and .def_166 .def_167)))
(let ((.def_170 (and .def_168 .def_169)))
(let ((.def_172 (and .def_170 .def_171)))
(let ((.def_174 (and .def_172 .def_173)))
(let ((.def_176 (and .def_174 .def_175)))
(let ((.def_178 (and .def_176 .def_177)))
(let ((.def_180 (and .def_178 .def_179)))
(let ((.def_182 (and .def_180 .def_181)))
(let ((.def_184 (and .def_182 .def_183)))
(let ((.def_186 (and .def_184 .def_185)))
(let ((.def_188 (and .def_186 .def_187)))
(let ((.def_190 (and .def_188 .def_189)))
(let ((.def_192 (and .def_190 .def_191)))
(let ((.def_194 (and .def_192 .def_193)))
(let ((.def_196 (and .def_194 .def_195)))
(let ((.def_198 (and .def_196 .def_197)))
(let ((.def_200 (and .def_198 .def_199)))
(let ((.def_202 (and .def_200 .def_201)))
(let ((.def_204 (and .def_202 .def_203)))
(let ((.def_206 (and .def_204 .def_205)))
(let ((.def_208 (and .def_206 .def_207)))
(let ((.def_210 (and .def_208 .def_209)))
(let ((.def_212 (and .def_210 .def_211)))
(let ((.def_214 (and .def_212 .def_213)))
(let ((.def_216 (and .def_214 .def_215)))
(let ((.def_218 (and .def_216 .def_217)))
(let ((.def_220 (and .def_218 .def_219)))
(let ((.def_222 (and .def_220 .def_221)))
(let ((.def_224 (and .def_222 .def_223)))
(let ((.def_226 (and .def_224 .def_225)))
(let ((.def_228 (and .def_226 .def_227)))
(let ((.def_230 (and .def_228 .def_229)))
(let ((.def_232 (and .def_230 .def_231)))
(let ((.def_234 (and .def_232 .def_233)))
(let ((.def_236 (and .def_234 .def_235)))
(let ((.def_238 (and .def_236 .def_237)))
(let ((.def_240 (and .def_238 .def_239)))
(let ((.def_242 (and .def_240 .def_241)))
(let ((.def_244 (and .def_242 .def_243)))
(let ((.def_246 (and .def_244 .def_245)))
(let ((.def_248 (and .def_246 .def_247)))
(let ((.def_250 (and .def_248 .def_249)))
(let ((.def_252 (and .def_250 .def_251)))
.def_252))))))))))))))))))))))))))))))))))))))))))))))))))))))))))))))))))))))))))))))))))))))))))))))))))))))))))))))))))))))))))))))))))))))))))))))))))))))))))))))))))))))))))))))))))))))))))))))))))))))))))
(check-sat)
